(declare-fun var0 () String)
(assert (RegexIn var0 (RegexConcat (RegexStar (RegexStar (Str2Reg "**"))) (RegexConcat (RegexUnion (RegexStar (Str2Reg "(((")) (RegexStar (Str2Reg ")))"))) (RegexConcat (RegexUnion (RegexStar (Str2Reg "&&")) (RegexPlus (Str2Reg "'"))) (RegexConcat (RegexStar (RegexPlus (Str2Reg "%"))) (RegexConcat (RegexUnion (RegexUnion (Str2Reg "\"") (Str2Reg "##")) (RegexStar (Str2Reg "$$"))) (RegexConcat (RegexStar (RegexStar (Str2Reg "!!!"))) (RegexConcat (RegexStar (RegexStar (Str2Reg "Z"))) (RegexConcat (RegexStar (RegexPlus (Str2Reg "YYY"))) (RegexConcat (RegexPlus (RegexPlus (Str2Reg "XX"))) (RegexConcat (RegexPlus (RegexStar (Str2Reg "W"))) (RegexConcat (RegexUnion (RegexUnion (Str2Reg "TT") (Str2Reg "UUU")) (RegexPlus (Str2Reg "VVV"))) (RegexConcat (RegexPlus (RegexStar (Str2Reg "S"))) (RegexConcat (RegexUnion (RegexPlus (Str2Reg "QQ")) (RegexStar (Str2Reg "R"))) (RegexConcat (RegexPlus (RegexPlus (Str2Reg "PP"))) (RegexConcat (RegexUnion (RegexStar (Str2Reg "NNN")) (RegexStar (Str2Reg "OOO"))) (RegexConcat (RegexUnion (RegexStar (Str2Reg "L")) (RegexStar (Str2Reg "MM"))) (RegexConcat (RegexStar (RegexStar (Str2Reg "K"))) (RegexConcat (RegexUnion (RegexStar (Str2Reg "HHH")) (RegexUnion (Str2Reg "I") (Str2Reg "JJJ"))) (RegexConcat (RegexUnion (RegexUnion (Str2Reg "EE") (Str2Reg "FF")) (RegexStar (Str2Reg "G"))) (RegexConcat (RegexUnion (RegexUnion (Str2Reg "AAA") (Str2Reg "BBB")) (RegexUnion (Str2Reg "CCC") (Str2Reg "DD"))) (RegexConcat (RegexPlus (RegexPlus (Str2Reg "z"))) (RegexConcat (RegexUnion (RegexPlus (Str2Reg "xx")) (RegexStar (Str2Reg "y"))) (RegexConcat (RegexPlus (RegexPlus (Str2Reg "www"))) (RegexConcat (RegexUnion (RegexUnion (Str2Reg "ttt") (Str2Reg "u")) (RegexPlus (Str2Reg "vvv"))) (RegexConcat (RegexStar (RegexStar (Str2Reg "sss"))) (RegexConcat (RegexStar (RegexPlus (Str2Reg "rrr"))) (RegexConcat (RegexStar (RegexStar (Str2Reg "q"))) (RegexConcat (RegexPlus (RegexPlus (Str2Reg "ppp"))) (RegexConcat (RegexPlus (RegexPlus (Str2Reg "ooo"))) (RegexConcat (RegexStar (RegexUnion (Str2Reg "mm") (Str2Reg "nnn"))) (RegexConcat (RegexStar (RegexPlus (Str2Reg "ll"))) (RegexConcat (RegexStar (RegexStar (Str2Reg "k"))) (RegexConcat (RegexUnion (RegexUnion (Str2Reg "hh") (Str2Reg "i")) (RegexPlus (Str2Reg "jj"))) (RegexConcat (RegexUnion (RegexUnion (Str2Reg "dd") (Str2Reg "ee")) (RegexUnion (Str2Reg "fff") (Str2Reg "g"))) (RegexConcat (RegexPlus (RegexPlus (Str2Reg "cc"))) (RegexConcat (RegexPlus (RegexStar (Str2Reg "bb"))) (RegexConcat (RegexUnion (RegexPlus (Str2Reg "888")) (RegexUnion (Str2Reg "9") (Str2Reg "aa"))) (RegexConcat (RegexPlus (RegexUnion (Str2Reg "66") (Str2Reg "7"))) (RegexConcat (RegexPlus (RegexStar (Str2Reg "55"))) (RegexConcat (RegexStar (RegexUnion (Str2Reg "33") (Str2Reg "44"))) (RegexConcat (RegexUnion (RegexPlus (Str2Reg "11")) (RegexPlus (Str2Reg "222"))) (RegexConcat (RegexPlus (RegexPlus (Str2Reg "000"))) (RegexConcat (RegexPlus (RegexStar (Str2Reg "~~"))) (RegexConcat (RegexPlus (RegexUnion (Str2Reg "|||") (Str2Reg "}}"))) (RegexConcat (RegexPlus (RegexUnion (Str2Reg "`") (Str2Reg "{{"))) (RegexConcat (RegexPlus (RegexPlus (Str2Reg "_"))) (RegexConcat (RegexPlus (RegexPlus (Str2Reg "^"))) (RegexConcat (RegexPlus (RegexStar (Str2Reg "]]"))) (RegexConcat (RegexStar (RegexUnion (Str2Reg "[[[") (Str2Reg "\\\\"))) (RegexConcat (RegexUnion (RegexUnion (Str2Reg ">>>") (Str2Reg "???")) (RegexPlus (Str2Reg "@"))) (RegexConcat (RegexUnion (RegexUnion (Str2Reg ";;") (Str2Reg "<")) (RegexStar (Str2Reg "==="))) (RegexConcat (RegexPlus (RegexPlus (Str2Reg ":::"))) (RegexConcat (RegexUnion (RegexUnion (Str2Reg ",,") (Str2Reg "-")) (RegexUnion (Str2Reg ".") (Str2Reg "//"))) (RegexConcat (RegexStar (RegexPlus (Str2Reg "++"))) (RegexConcat (RegexUnion (RegexPlus (Str2Reg "))")) (RegexStar (Str2Reg "**"))) (RegexConcat (RegexStar (RegexUnion (Str2Reg "'''") (Str2Reg "("))) (RegexConcat (RegexStar (RegexStar (Str2Reg "&&"))) (RegexConcat (RegexUnion (RegexUnion (Str2Reg "#") (Str2Reg "$$")) (RegexPlus (Str2Reg "%"))) (RegexConcat (RegexPlus (RegexPlus (Str2Reg "\"\"\""))) (RegexConcat (RegexUnion (RegexUnion (Str2Reg "XX") (Str2Reg "YY")) (RegexUnion (Str2Reg "ZZ") (Str2Reg "!"))) (RegexConcat (RegexUnion (RegexPlus (Str2Reg "UUU")) (RegexUnion (Str2Reg "V") (Str2Reg "W"))) (RegexConcat (RegexUnion (RegexStar (Str2Reg "SS")) (RegexPlus (Str2Reg "TT"))) (RegexConcat (RegexPlus (RegexUnion (Str2Reg "Q") (Str2Reg "R"))) (RegexConcat (RegexPlus (RegexStar (Str2Reg "P"))) (RegexConcat (RegexUnion (RegexPlus (Str2Reg "MMM")) (RegexUnion (Str2Reg "NNN") (Str2Reg "O"))) (RegexConcat (RegexStar (RegexPlus (Str2Reg "LL"))) (RegexConcat (RegexStar (RegexUnion (Str2Reg "JJJ") (Str2Reg "K"))) (RegexConcat (RegexPlus (RegexUnion (Str2Reg "H") (Str2Reg "I"))) (RegexConcat (RegexPlus (RegexStar (Str2Reg "G"))) (RegexConcat (RegexStar (RegexUnion (Str2Reg "EEE") (Str2Reg "F"))) (RegexConcat (RegexStar (RegexStar (Str2Reg "D"))) (RegexConcat (RegexUnion (RegexUnion (Str2Reg "zzz") (Str2Reg "AA")) (RegexUnion (Str2Reg "B") (Str2Reg "CC"))) (RegexConcat (RegexStar (RegexPlus (Str2Reg "y"))) (RegexConcat (RegexUnion (RegexPlus (Str2Reg "www")) (RegexPlus (Str2Reg "xx"))) (RegexConcat (RegexUnion (RegexPlus (Str2Reg "u")) (RegexPlus (Str2Reg "vvv"))) (RegexConcat (RegexUnion (RegexUnion (Str2Reg "rr") (Str2Reg "s")) (RegexStar (Str2Reg "t"))) (RegexConcat (RegexUnion (RegexPlus (Str2Reg "p")) (RegexStar (Str2Reg "qq"))) (RegexConcat (RegexUnion (RegexUnion (Str2Reg "m") (Str2Reg "nnn")) (RegexPlus (Str2Reg "o"))) (RegexConcat (RegexStar (RegexPlus (Str2Reg "l"))) (RegexConcat (RegexStar (RegexUnion (Str2Reg "jj") (Str2Reg "kkk"))) (RegexConcat (RegexPlus (RegexUnion (Str2Reg "hhh") (Str2Reg "i"))) (RegexConcat (RegexStar (RegexUnion (Str2Reg "f") (Str2Reg "g"))) (RegexConcat (RegexPlus (RegexStar (Str2Reg "eee"))) (RegexConcat (RegexStar (RegexPlus (Str2Reg "dd"))) (RegexConcat (RegexPlus (RegexStar (Str2Reg "c"))) (RegexConcat (RegexStar (RegexPlus (Str2Reg "bb"))) (RegexConcat (RegexStar (RegexStar (Str2Reg "a"))) (RegexConcat (RegexUnion (RegexUnion (Str2Reg "666") (Str2Reg "7")) (RegexUnion (Str2Reg "888") (Str2Reg "9"))) (RegexConcat (RegexPlus (RegexPlus (Str2Reg "55"))) (RegexConcat (RegexPlus (RegexStar (Str2Reg "444"))) (RegexConcat (RegexUnion (RegexStar (Str2Reg "11")) (RegexUnion (Str2Reg "22") (Str2Reg "333"))) (RegexPlus (RegexStar (Str2Reg "0"))))))))))))))))))))))))))))))))))))))))))))))))))))))))))))))))))))))))))))))))))))))))))))))))
(check-sat)